58819
94,241,256,384,558,599,847,988,1012,1144,1178,1224,1282,1350,1417,1447,1509,1520,1599,1658,1889,2121,2141,2183,2206,2221,2996,3013,3121,3133,3144,3228,3305,3424,3459,3504,3647,3749,3986,4052,4133,4157,4221,4320,4336,4343,4427,4438,4519,4521,4624,4638,4651,4859,5273,5395,5559,5805,5852,5890,5909,5954,6125,6132,6268,6339,6529,6885,7042,7224,7247,7265,7294,7771,7864,7910,7920,8049,8143,8344,8893,8970,9384,9391,9399,9413,9474,9503,9550,9673,9695,9843,9995
